Ce  O  H                                
   1.00000000000000     
    11.6375999450999998    0.0000000000000000    0.0000000000000000
    -5.8188004494000003   10.0784580173999991    0.0000000000000000
     0.0000000000000000    0.0000000000000000   28.0856990814000014
   Ce   O    H 
    36    72     2
Selective dynamics
Direct
  0.2173738122122870  0.7671247167440995  0.3661016523968925   T   T   T
  0.8897919561935979  0.7758395794841988  0.3647607442706828   T   T   T
  0.2216247075271127  0.1102170380897718  0.3625801071785020   T   T   T
  0.2065704934231860  0.4319437143315383  0.3641582944021451   T   T   T
  0.5566045633788690  0.1134425937122856  0.3638053994468180   T   T   T
  0.5609492999181711  0.4352135224373015  0.3645196036110079   T   T   T
  0.5634289223974775  0.7933733186123320  0.3651905377219578   T   T   T
  0.8901718254116133  0.1107494072131914  0.3637804277555148   T   T   T
  0.8878571070326728  0.4430067877915818  0.3635357160584931   T   T   T
  0.1116131444142994  0.2211423241135222  0.2509790308725925   T   T   T
  0.1117451084425269  0.5556896399247080  0.2517338830018545   T   T   T
  0.1114418231194918  0.8870441408525309  0.2526472479931456   T   T   T
  0.4434293087443564  0.2215463268082161  0.2511966589329546   T   T   T
  0.4443495417046890  0.5557799251459627  0.2461999157886865   T   T   T
  0.4426545691153478  0.8875119872608863  0.2527107836938427   T   T   T
  0.7775315876885003  0.2215049797144317  0.2523672135537538   T   T   T
  0.7779372021189985  0.5562798104253446  0.2519586511078842   T   T   T
  0.7786670338898176  0.8881492949856025  0.2522846435391415   T   T   T
  0.9997820076456989  0.9994205399318901  0.1397188018646460   T   T   T
  0.0001793921170972  0.3332252393749329  0.1395427630053732   T   T   T
  0.9998734728436887  0.6662760516758723  0.1397960308803619   T   T   T
  0.3333623735951079  0.9993537617485799  0.1397259053885023   T   T   T
  0.3324430831255754  0.3311839302348503  0.1384824488999001   T   T   T
  0.3325374559808338  0.6675715377333020  0.1387392448959304   T   T   T
  0.6662045726475583  0.9991734942115684  0.1398766516897467   T   T   T
  0.6664297964305135  0.3333146556502911  0.1395941440021033   T   T   T
  0.6686630537968767  0.6675950231124119  0.1387757537749366   T   T   T
  0.2222233419999995  0.1111100019999967  0.0281936894715358   F   F   F
  0.2222233390000028  0.4444433219999979  0.0281936894715358   F   F   F
  0.2222233190000225  0.7777767119999979  0.0281936894715358   F   F   F
  0.5555566450000029  0.1111100019999967  0.0281936894715358   F   F   F
  0.5555566310000017  0.4444433219999979  0.0281936894715358   F   F   F
  0.5555566119999966  0.7777767119999979  0.0281936894715358   F   F   F
  0.8888899780000017  0.1111100019999967  0.0281936894715358   F   F   F
  0.8888899849999987  0.4444433219999979  0.0281936894715358   F   F   F
  0.8888899860000024  0.7777767119999979  0.0281936894715358   F   F   F
  0.0096843245899194  0.0146563907590576  0.3924698568787406   T   T   T
  0.9977213679564230  0.3268586776400682  0.3937214994751628   T   T   T
  0.9875884329845306  0.6444730855624030  0.3934868854713116   T   T   T
  0.3462035536853421  0.0312979546005607  0.3970024435764259   T   T   T
  0.3410287245222605  0.3474217272684612  0.3837464867692191   T   T   T
  0.3512507448250233  0.6424643869998263  0.3808092798161482   T   T   T
  0.6699578844463261  0.0043315696111748  0.3940857490728504   T   T   T
  0.6644610436813778  0.3293584402557528  0.3936690293080787   T   T   T
  0.6325595323201583  0.6479635209447778  0.3836746470991272   T   T   T
  0.1065958339393376  0.2210920771414777  0.3329593873367429   T   T   T
  0.1042867785176682  0.5431348473033708  0.3339135129344655   T   T   T
  0.1174799306013341  0.8923617394928129  0.3353287280351935   T   T   T
  0.4499529511149021  0.2225862269396615  0.3325181281132643   T   T   T
  0.4490404058780157  0.8966048784181240  0.3364759950905665   T   T   T
  0.7775169994473003  0.2215965393556303  0.3347931323011082   T   T   T
  0.7723112344518839  0.5441357929909572  0.3334350090024572   T   T   T
  0.7775744781589324  0.8952296169619132  0.3350139880833041   T   T   T
  0.2231217459450008  0.1128235676921676  0.2797272152269485   T   T   T
  0.2408561331807064  0.4512050633183549  0.2830406052574261   T   T   T
  0.2229006065388432  0.7736279146495590  0.2780314882653983   T   T   T
  0.5572669306498526  0.1109485972626203  0.2788486473776643   T   T   T
  0.5434841060133309  0.4534623626445011  0.2836883684477840   T   T   T
  0.5460772240664085  0.7608127879740394  0.2841747315278980   T   T   T
  0.8882004491121904  0.1114283992961873  0.2787651727899387   T   T   T
  0.8878654990599628  0.4421415807587579  0.2782593784145675   T   T   T
  0.8877489787712207  0.7763450675693093  0.2791715300705775   T   T   T
  0.0003581393280356  0.9998432573782168  0.2240068706856988   T   T   T
  0.0073175751707169  0.3360166404679887  0.2243853872291766   T   T   T
  0.9990459530217208  0.6652762130032386  0.2238500888868273   T   T   T
  0.3335867484722925  0.0001538574405657  0.2242792419813071   T   T   T
  0.3330032462811587  0.3320241253279335  0.2212808612422421   T   T   T
  0.3342292161408409  0.6658576291593619  0.2217446606353022   T   T   T
  0.6627352077087139  0.9916372761212529  0.2249501118676989   T   T   T
  0.6620496678864853  0.3367098605378231  0.2247038064258078   T   T   T
  0.6664839952020927  0.6670023413345376  0.2221174626814246   T   T   T
  0.1099099732040543  0.2206101484404357  0.1666623594141257   T   T   T
  0.1103779802409193  0.5554345903117621  0.1669478464294869   T   T   T
  0.1112621011734660  0.8882307083041212  0.1676210974921872   T   T   T
  0.4443888000652763  0.2205244841894327  0.1666843055487561   T   T   T
  0.4447760734102815  0.5552497744785043  0.1655345969282891   T   T   T
  0.4440172011545940  0.8895182688812469  0.1674315963564723   T   T   T
  0.7773454227672687  0.2218145902199851  0.1691779406133662   T   T   T
  0.7783194285392483  0.5554405403906415  0.1669761673071193   T   T   T
  0.7789729989285661  0.8895800562507432  0.1672263216612251   T   T   T
  0.2219000711422723  0.1102322835950034  0.1107398319110757   T   T   T
  0.2213766495677376  0.4438862699876083  0.1107436498446432   T   T   T
  0.2221625945157442  0.7777782258951191  0.1107440597100506   T   T   T
  0.5568775053175230  0.1112985099255468  0.1110109846933653   T   T   T
  0.5560220341750721  0.4438324366099948  0.1107023696701290   T   T   T
  0.5560299577280929  0.7786962169121807  0.1108618103697978   T   T   T
  0.8878847897328299  0.1114459139868700  0.1110449875856787   T   T   T
  0.8880996010853650  0.4428719017913210  0.1110462235004945   T   T   T
  0.8892616699387403  0.7778338858445792  0.1107860801189702   T   T   T
  0.0000000000000000  0.0000000000000000  0.0563873789430787   F   F   F
  0.9999999979999998  0.3333333429999996  0.0563873789430787   F   F   F
  0.9999999959999997  0.6666666859999992  0.0563873789430787   F   F   F
  0.3333333329999988  0.0000000000000000  0.0563873789430787   F   F   F
  0.3333333309999986  0.3333333429999996  0.0563873789430787   F   F   F
  0.3333333290000127  0.6666666859999992  0.0563873789430787   F   F   F
  0.6666666670000012  0.0000000000000000  0.0563873789430787   F   F   F
  0.6666666850000027  0.3333333429999996  0.0563873789430787   F   F   F
  0.6666666630000009  0.6666666859999992  0.0563873789430787   F   F   F
  0.1111099990000000  0.2222233399999993  0.0000000000000000   F   F   F
  0.1111099960000033  0.5555566600000006  0.0000000000000000   F   F   F
  0.1111100070000219  0.8888900500000005  0.0000000000000000   F   F   F
  0.4444433740000022  0.2222233399999993  0.0000000000000000   F   F   F
  0.4444433600000011  0.5555566600000006  0.0000000000000000   F   F   F
  0.4444433820000171  0.8888900500000005  0.0000000000000000   F   F   F
  0.7777767480000009  0.2222233399999993  0.0000000000000000   F   F   F
  0.7777767139999980  0.5555566600000006  0.0000000000000000   F   F   F
  0.7777767560000015  0.8888900500000005  0.0000000000000000   F   F   F
  0.2921021417862093  0.8417704546408942  0.4540922878099920   T   T   T
  0.3171093509476535  0.9334410191367084  0.4406653678184824   T   T   T
  0.2355074758533746  0.8237477747017934  0.4817807063243862   T   T   T
 
  0.00000000E+00  0.00000000E+00  0.00000000E+00
  0.00000000E+00  0.00000000E+00  0.00000000E+00
  0.00000000E+00  0.00000000E+00  0.00000000E+00
  0.00000000E+00  0.00000000E+00  0.00000000E+00
  0.00000000E+00  0.00000000E+00  0.00000000E+00
  0.00000000E+00  0.00000000E+00  0.00000000E+00
  0.00000000E+00  0.00000000E+00  0.00000000E+00
  0.00000000E+00  0.00000000E+00  0.00000000E+00
  0.00000000E+00  0.00000000E+00  0.00000000E+00
  0.00000000E+00  0.00000000E+00  0.00000000E+00
  0.00000000E+00  0.00000000E+00  0.00000000E+00
  0.00000000E+00  0.00000000E+00  0.00000000E+00
  0.00000000E+00  0.00000000E+00  0.00000000E+00
  0.00000000E+00  0.00000000E+00  0.00000000E+00
  0.00000000E+00  0.00000000E+00  0.00000000E+00
  0.00000000E+00  0.00000000E+00  0.00000000E+00
  0.00000000E+00  0.00000000E+00  0.00000000E+00
  0.00000000E+00  0.00000000E+00  0.00000000E+00
  0.00000000E+00  0.00000000E+00  0.00000000E+00
  0.00000000E+00  0.00000000E+00  0.00000000E+00
  0.00000000E+00  0.00000000E+00  0.00000000E+00
  0.00000000E+00  0.00000000E+00  0.00000000E+00
  0.00000000E+00  0.00000000E+00  0.00000000E+00
  0.00000000E+00  0.00000000E+00  0.00000000E+00
  0.00000000E+00  0.00000000E+00  0.00000000E+00
  0.00000000E+00  0.00000000E+00  0.00000000E+00
  0.00000000E+00  0.00000000E+00  0.00000000E+00
  0.00000000E+00  0.00000000E+00  0.00000000E+00
  0.00000000E+00  0.00000000E+00  0.00000000E+00
  0.00000000E+00  0.00000000E+00  0.00000000E+00
  0.00000000E+00  0.00000000E+00  0.00000000E+00
  0.00000000E+00  0.00000000E+00  0.00000000E+00
  0.00000000E+00  0.00000000E+00  0.00000000E+00
  0.00000000E+00  0.00000000E+00  0.00000000E+00
  0.00000000E+00  0.00000000E+00  0.00000000E+00
  0.00000000E+00  0.00000000E+00  0.00000000E+00
  0.00000000E+00  0.00000000E+00  0.00000000E+00
  0.00000000E+00  0.00000000E+00  0.00000000E+00
  0.00000000E+00  0.00000000E+00  0.00000000E+00
  0.00000000E+00  0.00000000E+00  0.00000000E+00
  0.00000000E+00  0.00000000E+00  0.00000000E+00
  0.00000000E+00  0.00000000E+00  0.00000000E+00
  0.00000000E+00  0.00000000E+00  0.00000000E+00
  0.00000000E+00  0.00000000E+00  0.00000000E+00
  0.00000000E+00  0.00000000E+00  0.00000000E+00
  0.00000000E+00  0.00000000E+00  0.00000000E+00
  0.00000000E+00  0.00000000E+00  0.00000000E+00
  0.00000000E+00  0.00000000E+00  0.00000000E+00
  0.00000000E+00  0.00000000E+00  0.00000000E+00
  0.00000000E+00  0.00000000E+00  0.00000000E+00
  0.00000000E+00  0.00000000E+00  0.00000000E+00
  0.00000000E+00  0.00000000E+00  0.00000000E+00
  0.00000000E+00  0.00000000E+00  0.00000000E+00
  0.00000000E+00  0.00000000E+00  0.00000000E+00
  0.00000000E+00  0.00000000E+00  0.00000000E+00
  0.00000000E+00  0.00000000E+00  0.00000000E+00
  0.00000000E+00  0.00000000E+00  0.00000000E+00
  0.00000000E+00  0.00000000E+00  0.00000000E+00
  0.00000000E+00  0.00000000E+00  0.00000000E+00
  0.00000000E+00  0.00000000E+00  0.00000000E+00
  0.00000000E+00  0.00000000E+00  0.00000000E+00
  0.00000000E+00  0.00000000E+00  0.00000000E+00
  0.00000000E+00  0.00000000E+00  0.00000000E+00
  0.00000000E+00  0.00000000E+00  0.00000000E+00
  0.00000000E+00  0.00000000E+00  0.00000000E+00
  0.00000000E+00  0.00000000E+00  0.00000000E+00
  0.00000000E+00  0.00000000E+00  0.00000000E+00
  0.00000000E+00  0.00000000E+00  0.00000000E+00
  0.00000000E+00  0.00000000E+00  0.00000000E+00
  0.00000000E+00  0.00000000E+00  0.00000000E+00
  0.00000000E+00  0.00000000E+00  0.00000000E+00
  0.00000000E+00  0.00000000E+00  0.00000000E+00
  0.00000000E+00  0.00000000E+00  0.00000000E+00
  0.00000000E+00  0.00000000E+00  0.00000000E+00
  0.00000000E+00  0.00000000E+00  0.00000000E+00
  0.00000000E+00  0.00000000E+00  0.00000000E+00
  0.00000000E+00  0.00000000E+00  0.00000000E+00
  0.00000000E+00  0.00000000E+00  0.00000000E+00
  0.00000000E+00  0.00000000E+00  0.00000000E+00
  0.00000000E+00  0.00000000E+00  0.00000000E+00
  0.00000000E+00  0.00000000E+00  0.00000000E+00
  0.00000000E+00  0.00000000E+00  0.00000000E+00
  0.00000000E+00  0.00000000E+00  0.00000000E+00
  0.00000000E+00  0.00000000E+00  0.00000000E+00
  0.00000000E+00  0.00000000E+00  0.00000000E+00
  0.00000000E+00  0.00000000E+00  0.00000000E+00
  0.00000000E+00  0.00000000E+00  0.00000000E+00
  0.00000000E+00  0.00000000E+00  0.00000000E+00
  0.00000000E+00  0.00000000E+00  0.00000000E+00
  0.00000000E+00  0.00000000E+00  0.00000000E+00
  0.00000000E+00  0.00000000E+00  0.00000000E+00
  0.00000000E+00  0.00000000E+00  0.00000000E+00
  0.00000000E+00  0.00000000E+00  0.00000000E+00
  0.00000000E+00  0.00000000E+00  0.00000000E+00
  0.00000000E+00  0.00000000E+00  0.00000000E+00
  0.00000000E+00  0.00000000E+00  0.00000000E+00
  0.00000000E+00  0.00000000E+00  0.00000000E+00
  0.00000000E+00  0.00000000E+00  0.00000000E+00
  0.00000000E+00  0.00000000E+00  0.00000000E+00
  0.00000000E+00  0.00000000E+00  0.00000000E+00
  0.00000000E+00  0.00000000E+00  0.00000000E+00
  0.00000000E+00  0.00000000E+00  0.00000000E+00
  0.00000000E+00  0.00000000E+00  0.00000000E+00
  0.00000000E+00  0.00000000E+00  0.00000000E+00
  0.00000000E+00  0.00000000E+00  0.00000000E+00
  0.00000000E+00  0.00000000E+00  0.00000000E+00
  0.00000000E+00  0.00000000E+00  0.00000000E+00
  0.00000000E+00  0.00000000E+00  0.00000000E+00
  0.00000000E+00  0.00000000E+00  0.00000000E+00
  0.00000000E+00  0.00000000E+00  0.00000000E+00
