Ce  O  H 
 1.0000000000000000
    11.6375999450999998    0.0000000000000000    0.0000000000000000
    -5.8188004494000003   10.0784580173999991    0.0000000000000000
     0.0000000000000000    0.0000000000000000   28.0856990814000014
 Ce  O   H  
  36  72   2
Selective dynamics
Cartesian
 -1.9340361814685409  7.7314342518152523 10.2822208424223991   T   T   T
  5.8405871267840324  7.8192666300687907 10.2445605002938862   T   T   T
  1.9378487333820202  1.1108177911899366 10.1833157831171572   T   T   T
 -0.1094095161469299  4.3533265907702248 10.2276402745745081   T   T   T
  5.8174414209462197  1.1433264181142033 10.2177289730517842   T   T   T
  3.9956829019884865  4.3862812144891024 10.2377878962899054   T   T   T
  1.9404793734772590  7.9959796837597201 10.2566315498335197   T   T   T
  9.7150348860768343  1.1161832510500882 10.2170276256442776   T   T   T
  7.7547577241712062  4.4648253121806745 10.2101547265600754   T   T   T
  0.0121260683751576  2.2287736294483969  7.0489215368289528   T   T   T
 -1.9330022586448969  5.6004947066852928  7.0701220865823817   T   T   T
 -3.8646174908130688  8.9400371331628801  7.0957745808792936   T   T   T
  3.8713190331044731  2.2328453536457991  7.0550337730439798   T   T   T
  1.9371897239409106  5.6014046424972941  6.9146967487070219   T   T   T
 -0.0128183610864668  8.9447523035480714  7.0975590254501144   T   T   T
  7.7597082866905129  2.2324286386969323  7.0879096178820600   T   T   T
  5.8164407297761489  5.6064427152991012  7.0764348559713932   T   T   T
  3.8938519140508228  8.9511753826957960  7.0855905812986739   T   T   T
  5.8196343503943027 10.0726179534307985  3.9241002251842665   T   T   T
 -1.9368834789341953  3.3583965853783053  3.9191560507559733   T   T   T
  7.7592000837566619  6.7150352148142796  3.9262692560799266   T   T   T
 -1.9355021773233412 10.0719449323138086  3.9242997326176043   T   T   T
  1.9417464038464591  3.3378233369094659  3.8893763878580101   T   T   T
 -0.0145276843029734  6.7280917166562348  3.8965886829277880   T   T   T
  1.9390311209217768 10.0701281135101688  3.9285335478719885   T   T   T
  5.8161518942632329  3.3592977635556234  3.9205991219687366   T   T   T
  3.8970308976532158  6.7283284130636343  3.8976140603172653   T   T   T
  1.9396194230887167  1.1198174904701967  0.7918394784920616   F   F   F
  0.0000193159599543  4.4793033618907687  0.7918394784920616   F   F   F
 -1.9395813963238768  7.8387899388033890  0.7918394784920616   F   F   F
  5.8188190517815581  1.1198174904701967  0.7918394784920616   F   F   F
  3.8792188166391441  4.4793033618907687  0.7918394784920616   F   F   F
  1.9396181159926607  7.8387899388033890  0.7918394784920616   F   F   F
  9.6980190296023423  1.1198174904701967  0.7918394784920616   F   F   F
  7.7584190388495076  4.4793033618907687  0.7918394784920616   F   F   F
  5.8188185709551243  7.8387899388033890  0.7918394784920616   F   F   F
  0.0274196821805698  0.1477138189517905 11.0227902988164246   T   T   T
  9.7091567166124175  3.2942314602183225 11.0579435561369230   T   T   T
  7.7430988135854539  6.4952949361849299 11.0513542578245083   T   T   T
  3.8468619050669592  0.3154351214722411 11.1500911648680319   T   T   T
  1.9471781630167748  3.5014752926077763 10.7777883509448156   T   T   T
  0.3493435848939289  6.4750503520523832 10.6952948403210364   T   T   T
  7.7714973000517746  0.0436555424756860 11.0681737607281701   T   T   T
  5.8162607652935980  3.3194252127939636 11.0564698948136133   T   T   T
  3.5911043517332586  6.5304731426486544 10.7757706835883997   T   T   T
 -0.0459710066292591  2.2282672174501510  9.3513971590671634   T   T   T
 -1.9467454856218229  5.4739617563340142  9.3781944434906226   T   T   T
 -3.8252904568716968  8.9936303278123262  9.4179417489450028   T   T   T
  3.9411876018456438  2.2433259434628443  9.3390040852995782   T   T   T
  0.0085877333200838  9.0363946253330791  9.4501635462282554   T   T   T
  7.7590057472941902  2.2333514186968144  9.4028991683281635   T   T   T
  5.8216315828669494  5.4840497454240333  9.3647553260468452   T   T   T
  3.8399382068393511  9.0225341104837291  9.4091020573674164   T   T   T
  1.9401037919701121  1.1370875903587769  7.8563343917420587   T   T   T
  0.1775150970724383  4.5474512878923194  7.9493932670773955   T   T   T
 -1.9075583710120552  7.7969764588842727  7.8087087145756868   T   T   T
  5.8396618539247367  1.1181907796007693  7.8316591995045570   T   T   T
  3.6862436027616319  4.5702013843836431  7.9675861491178601   T   T   T
  1.9280104802430045  7.6678197426973718  7.9812459962300872   T   T   T
  9.6881418779252524  1.1230264442526741  7.8293147573527841   T   T   T
  7.7598898542989021  4.4561053594240132  7.8151091687289833   T   T   T
  5.8138704385487392  7.8243611705128471  7.8407275856562766   T   T   T
 -5.8137205131376284 10.0768782934668302  6.2913895622446061   T   T   T
 -1.8700547661560150  3.3865296041044330  6.3020204639820721   T   T   T
  7.7553876008395335  6.7049583827280195  6.2869862358200264   T   T   T
 -1.9375465894371087 10.0800086631554304  6.2990393004915441   T   T   T
  1.9433764309699462  3.3462912078815172  6.2148276813225758   T   T   T
  0.0151332356225484  6.7108181610481168  6.2278538115102453   T   T   T
  1.9425077889105931  9.9941746558769591  6.3178811502434282   T   T   T
  5.7454216908343456  3.3935161934750728  6.3109634897204279   T   T   T
  3.8751205824656143  6.7223550946476482  6.2383242175946281   T   T   T
 -0.0045981327619847  2.2234101192693481  4.6808288747012234   T   T   T
 -1.9474282669263991  5.5979241998688671  4.6888469771062686   T   T   T
 -3.8736134221428999  8.9519959034085677  4.7077557038594859   T   T   T
  3.8884311075375546  2.2225467557120075  4.6814452472345742   T   T   T
  1.9452383702365217  5.5960615412524533  4.6491548768887831   T   T   T
 -0.0086347469355301  8.9649725286299997  4.7024334319863428   T   T   T
  7.7557402120645555  2.2355490351789253  4.7514807312780212   T   T   T
  5.8257724727985636  5.5979841674890407  4.6896423887533008   T   T   T
  3.8890872984763800  8.9655952500394527  4.6966681486665012   T   T   T
  1.9409645944219722  1.1109714423743644  3.1102055953793339   T   T   T
 -0.0065927424304957  4.4736891365704228  3.1103128247124987   T   T   T
 -1.9402968926323030  7.8388051965317773  3.1103243360689921   T   T   T
  5.8330938057383053  1.1217173596837895  3.1178211108278324   T   T   T
  3.8881896127856925  4.4731465791341485  3.1091534421532390   T   T   T
  1.9397763086157114  7.8480571304575975  3.1136314456654093   T   T   T
  9.6843664458593306  1.1232029653274569  3.1187761058291152   T   T   T
  7.7583646476643882  4.4634658692898999  3.1188108173607390   T   T   T
  5.8228113967476229  7.8393661629957005  3.1115045086292121   T   T   T
  0.0000000000000000  0.0000000000000000  1.5836789569841210   F   F   F
  9.6979997157763957  3.3594861032250902  1.5836789569841210   F   F   F
  7.7583994864527908  6.7189722064501805  1.5836789569841210   F   F   F
  3.8791999778207860  0.0000000000000000  1.5836789569841210   F   F   F
  1.9395997484971821  3.3594861032250902  1.5836789569841210   F   F   F
 -0.0000004808262253  6.7189722064501805  1.5836789569841210   F   F   F
  7.7583999672792139  0.0000000000000000  1.5836789569841210   F   F   F
  5.8187999707076283  3.3594861032250902  1.5836789569841210   F   F   F
  3.8791995086320061  6.7189722064501805  1.5836789569841210   F   F   F
 -0.0000195523967050  2.2396686026763990  0.0000000000000000   F   F   F
 -1.9396196595254662  5.5991544740969701  0.0000000000000000   F   F   F
 -3.8792200110437154  8.9586410510095913  0.0000000000000000   F   F   F
  3.8791809142033200  2.2396686026763990  0.0000000000000000   F   F   F
  1.9395806790609054  5.5991544740969701  0.0000000000000000   F   F   F
 -0.0000195444437020  8.9586410510095913  0.0000000000000000   F   F   F
  7.7583813691656998  2.2396686026763990  0.0000000000000000   F   F   F
  5.8187809012712703  5.5991544740969701  0.0000000000000000   F   F   F
  3.8791809105184822  8.9586410510095913  0.0000000000000000   F   F   F
 -1.4987264305413075  8.4837481873859506 12.7534993506159537   T   T   T
 -1.7411152564620020  9.4076461230883996 12.3763949161443669   T   T   T
 -2.0524821335651637  8.3021073642587009 13.5311479410510014   T   T   T
