Ce  O  H                                
   1.00000000000000     
    11.6375999450999998    0.0000000000000000    0.0000000000000000
    -5.8188004494000003   10.0784580173999991    0.0000000000000000
     0.0000000000000000    0.0000000000000000   33.0856990814000014
   Ce   O    H 
    36    73     2
Selective dynamics
Direct
  0.2240605799123330  0.1133516216351609  0.3076217536506007   T   T   T
  0.2224320410475329  0.4429771740398962  0.3074495502771484   T   T   T
  0.2197503471841102  0.7707790047873928  0.3086350802934135   T   T   T
  0.5563173740785246  0.1133031670303595  0.3078484121562610   T   T   T
  0.5563853233874099  0.4455497266430726  0.3071476709066232   T   T   T
  0.5560046132470404  0.7779271812333590  0.3076075842568216   T   T   T
  0.8888720220914905  0.1108238567907023  0.3076234463817826   T   T   T
  0.8877376592222532  0.4432003714558448  0.3075676125312228   T   T   T
  0.8894427046609366  0.7778914424263732  0.3075201148573683   T   T   T
  0.1111321117052171  0.2218227849428018  0.2131436530552406   T   T   T
  0.1111458017741853  0.5553203845168184  0.2131250203927877   T   T   T
  0.1121637749275735  0.8884986122144980  0.2136710424988806   T   T   T
  0.4448353255843429  0.2224167671425974  0.2130639478503156   T   T   T
  0.4447290123648102  0.5556712509701143  0.2131594007291611   T   T   T
  0.4436532182958572  0.8886514036101758  0.2136782075700481   T   T   T
  0.7776440580918802  0.2218862878110173  0.2132013335737852   T   T   T
  0.7781413838329883  0.5556296525378386  0.2131366506773205   T   T   T
  0.7782907276069935  0.8894772593098068  0.2132625804397392   T   T   T
  0.0001929285974072  0.9999060023002997  0.1183281339342628   T   T   T
  0.0000049844443808  0.3331762601246453  0.1182388997645205   T   T   T
  0.0001552474909374  0.6667961354819241  0.1182951029538799   T   T   T
  0.3332917948197078  0.9997078971510689  0.1183055842062046   T   T   T
  0.3334050595270384  0.3332735467043335  0.1182290720753443   T   T   T
  0.3335418223585123  0.6667809521685513  0.1183134657140812   T   T   T
  0.6665837831785240  0.9999209679001453  0.1183307334581443   T   T   T
  0.6667393973990556  0.3332504848233171  0.1182202351155581   T   T   T
  0.6668665178230171  0.6668678744943719  0.1182710063037646   T   T   T
  0.2222233419999995  0.1111100019999967  0.0239329831460964   F   F   F
  0.2222233390000028  0.4444433219999979  0.0239329831460964   F   F   F
  0.2222233190000367  0.7777767119999979  0.0239329831460964   F   F   F
  0.5555566450000029  0.1111100019999967  0.0239329831460964   F   F   F
  0.5555566310000017  0.4444433219999979  0.0239329831460964   F   F   F
  0.5555566119999966  0.7777767119999979  0.0239329831460964   F   F   F
  0.8888899780000017  0.1111100019999967  0.0239329831460964   F   F   F
  0.8888899849999987  0.4444433219999979  0.0239329831460964   F   F   F
  0.8888899860000024  0.7777767119999979  0.0239329831460964   F   F   F
  0.0004612958015500  0.9990336083055524  0.3309241324352357   T   T   T
  0.9994102159676999  0.3316690842446306  0.3308906277199526   T   T   T
  0.9951339828809083  0.6627951367273894  0.3312262473820127   T   T   T
  0.3421595475151875  0.0182408939080858  0.3341545674632371   T   T   T
  0.3335251697332069  0.3337410452114113  0.3308665514404652   T   T   T
  0.3341261505470285  0.6619936867157179  0.3297026944179393   T   T   T
  0.6670913333649153  0.9996080204088926  0.3306182262251269   T   T   T
  0.6672502996800063  0.3339164212356636  0.3309999590945552   T   T   T
  0.6673958434925638  0.6674990812157304  0.3308937190137442   T   T   T
  0.1111736806150248  0.2218996227446155  0.2835005619055408   T   T   T
  0.1102768083893082  0.5551985425339225  0.2840376113316765   T   T   T
  0.1161454789087202  0.8881518666404773  0.2848204936654071   T   T   T
  0.4460960575348807  0.2248735570027023  0.2827876937262985   T   T   T
  0.4462346222507136  0.5547880495615232  0.2831336297152802   T   T   T
  0.4399313907803872  0.8892804743420726  0.2849391754581418   T   T   T
  0.7778390555989318  0.2223645175299396  0.2835901138285593   T   T   T
  0.7768812859018936  0.5552319686141161  0.2832490031993444   T   T   T
  0.7782252528337565  0.8887109171701297  0.2834852430647317   T   T   T
  0.2218739377262295  0.1102514289134575  0.2374614212924016   T   T   T
  0.2221572306436030  0.4444683605502675  0.2374287219813240   T   T   T
  0.2217025238508938  0.7755849358774753  0.2369241887086986   T   T   T
  0.5555962100114442  0.1104137892248858  0.2375133126776277   T   T   T
  0.5564159021085828  0.4451069874266338  0.2367320083993718   T   T   T
  0.5547769250431571  0.7790518290942288  0.2379040208255248   T   T   T
  0.8889646889300522  0.1111320170322898  0.2374276314022978   T   T   T
  0.8890479986454736  0.4442805315508664  0.2373339722763745   T   T   T
  0.8913276282797824  0.7789216176605152  0.2377670556453495   T   T   T
  0.0000713814145925  0.9998579650007855  0.1896681264108082   T   T   T
  0.0000310215287911  0.3329755566608767  0.1895385303713724   T   T   T
  0.9997024250831856  0.6663279220446583  0.1895466578367149   T   T   T
  0.3335083990166297  0.9998800067429414  0.1898053229431724   T   T   T
  0.3330770642394114  0.3331142922558499  0.1896047670667116   T   T   T
  0.3338653464813959  0.6662571265852151  0.1895256400844261   T   T   T
  0.6667267881286847  0.9997706287667327  0.1896579907880849   T   T   T
  0.6669674363893279  0.3329989448588719  0.1895245215886803   T   T   T
  0.6675501556310053  0.6682095631209251  0.1898390949200035   T   T   T
  0.1111775491601819  0.2220410100318659  0.1418196167584753   T   T   T
  0.1112351398453271  0.5555674544974778  0.1418794298873038   T   T   T
  0.1114632732232224  0.8888236653535913  0.1420659673831395   T   T   T
  0.4444531678876160  0.2220866002428110  0.1418010517173727   T   T   T
  0.4450427118958729  0.5555323142660384  0.1418489666056928   T   T   T
  0.4442741311933460  0.8888336991534231  0.1420567486988134   T   T   T
  0.7777925205382985  0.2220285182631159  0.1418171776629862   T   T   T
  0.7775181733897512  0.5556202764213936  0.1418688741895977   T   T   T
  0.7780146579152643  0.8890924067482473  0.1418364095011881   T   T   T
  0.2222460223348577  0.1109512926406637  0.0941036648186824   T   T   T
  0.2223737825070629  0.4444726045549743  0.0941293354160138   T   T   T
  0.2222783846372849  0.7777609029265449  0.0941018051231737   T   T   T
  0.5555019334841802  0.1109662421793942  0.0941048638117863   T   T   T
  0.5556297076525922  0.4444062222594169  0.0940631156161231   T   T   T
  0.5555633267172411  0.7778155662854189  0.0941323523016990   T   T   T
  0.8889675501115661  0.1111064016656798  0.0940918923621510   T   T   T
  0.8889127390564440  0.4444896233133875  0.0941250084357605   T   T   T
  0.8890820713457828  0.7778221871668478  0.0941270813075690   T   T   T
  0.0000000000000000  0.0000000000000000  0.0478659662921999   F   F   F
  0.9999999979999998  0.3333333429999996  0.0478659662921999   F   F   F
  0.9999999959999997  0.6666666859999992  0.0478659662921999   F   F   F
  0.3333333329999988  0.0000000000000000  0.0478659662921999   F   F   F
  0.3333333309999986  0.3333333429999996  0.0478659662921999   F   F   F
  0.3333333290000269  0.6666666859999992  0.0478659662921999   F   F   F
  0.6666666670000012  0.0000000000000000  0.0478659662921999   F   F   F
  0.6666666850000027  0.3333333429999996  0.0478659662921999   F   F   F
  0.6666666630000009  0.6666666859999992  0.0478659662921999   F   F   F
  0.1111099990000000  0.2222233399999993  0.0000000000000000   F   F   F
  0.1111099960000033  0.5555566600000006  0.0000000000000000   F   F   F
  0.1111100070000361  0.8888900500000005  0.0000000000000000   F   F   F
  0.4444433740000022  0.2222233399999993  0.0000000000000000   F   F   F
  0.4444433600000011  0.5555566600000006  0.0000000000000000   F   F   F
  0.4444433820000313  0.8888900500000005  0.0000000000000000   F   F   F
  0.7777767480000009  0.2222233399999993  0.0000000000000000   F   F   F
  0.7777767139999980  0.5555566600000006  0.0000000000000000   F   F   F
  0.7777767560000015  0.8888900500000005  0.0000000000000000   F   F   F
  0.2407041301396333  0.8265559621075198  0.3851502800547522   T   T   T
  0.2836468517406061  0.9208121350188136  0.3745369060824473   T   T   T
  0.1549022594877343  0.8039620025951422  0.3966772476640443   T   T   T
 
  0.00000000E+00  0.00000000E+00  0.00000000E+00
  0.00000000E+00  0.00000000E+00  0.00000000E+00
  0.00000000E+00  0.00000000E+00  0.00000000E+00
  0.00000000E+00  0.00000000E+00  0.00000000E+00
  0.00000000E+00  0.00000000E+00  0.00000000E+00
  0.00000000E+00  0.00000000E+00  0.00000000E+00
  0.00000000E+00  0.00000000E+00  0.00000000E+00
  0.00000000E+00  0.00000000E+00  0.00000000E+00
  0.00000000E+00  0.00000000E+00  0.00000000E+00
  0.00000000E+00  0.00000000E+00  0.00000000E+00
  0.00000000E+00  0.00000000E+00  0.00000000E+00
  0.00000000E+00  0.00000000E+00  0.00000000E+00
  0.00000000E+00  0.00000000E+00  0.00000000E+00
  0.00000000E+00  0.00000000E+00  0.00000000E+00
  0.00000000E+00  0.00000000E+00  0.00000000E+00
  0.00000000E+00  0.00000000E+00  0.00000000E+00
  0.00000000E+00  0.00000000E+00  0.00000000E+00
  0.00000000E+00  0.00000000E+00  0.00000000E+00
  0.00000000E+00  0.00000000E+00  0.00000000E+00
  0.00000000E+00  0.00000000E+00  0.00000000E+00
  0.00000000E+00  0.00000000E+00  0.00000000E+00
  0.00000000E+00  0.00000000E+00  0.00000000E+00
  0.00000000E+00  0.00000000E+00  0.00000000E+00
  0.00000000E+00  0.00000000E+00  0.00000000E+00
  0.00000000E+00  0.00000000E+00  0.00000000E+00
  0.00000000E+00  0.00000000E+00  0.00000000E+00
  0.00000000E+00  0.00000000E+00  0.00000000E+00
  0.00000000E+00  0.00000000E+00  0.00000000E+00
  0.00000000E+00  0.00000000E+00  0.00000000E+00
  0.00000000E+00  0.00000000E+00  0.00000000E+00
  0.00000000E+00  0.00000000E+00  0.00000000E+00
  0.00000000E+00  0.00000000E+00  0.00000000E+00
  0.00000000E+00  0.00000000E+00  0.00000000E+00
  0.00000000E+00  0.00000000E+00  0.00000000E+00
  0.00000000E+00  0.00000000E+00  0.00000000E+00
  0.00000000E+00  0.00000000E+00  0.00000000E+00
  0.00000000E+00  0.00000000E+00  0.00000000E+00
  0.00000000E+00  0.00000000E+00  0.00000000E+00
  0.00000000E+00  0.00000000E+00  0.00000000E+00
  0.00000000E+00  0.00000000E+00  0.00000000E+00
  0.00000000E+00  0.00000000E+00  0.00000000E+00
  0.00000000E+00  0.00000000E+00  0.00000000E+00
  0.00000000E+00  0.00000000E+00  0.00000000E+00
  0.00000000E+00  0.00000000E+00  0.00000000E+00
  0.00000000E+00  0.00000000E+00  0.00000000E+00
  0.00000000E+00  0.00000000E+00  0.00000000E+00
  0.00000000E+00  0.00000000E+00  0.00000000E+00
  0.00000000E+00  0.00000000E+00  0.00000000E+00
  0.00000000E+00  0.00000000E+00  0.00000000E+00
  0.00000000E+00  0.00000000E+00  0.00000000E+00
  0.00000000E+00  0.00000000E+00  0.00000000E+00
  0.00000000E+00  0.00000000E+00  0.00000000E+00
  0.00000000E+00  0.00000000E+00  0.00000000E+00
  0.00000000E+00  0.00000000E+00  0.00000000E+00
  0.00000000E+00  0.00000000E+00  0.00000000E+00
  0.00000000E+00  0.00000000E+00  0.00000000E+00
  0.00000000E+00  0.00000000E+00  0.00000000E+00
  0.00000000E+00  0.00000000E+00  0.00000000E+00
  0.00000000E+00  0.00000000E+00  0.00000000E+00
  0.00000000E+00  0.00000000E+00  0.00000000E+00
  0.00000000E+00  0.00000000E+00  0.00000000E+00
  0.00000000E+00  0.00000000E+00  0.00000000E+00
  0.00000000E+00  0.00000000E+00  0.00000000E+00
  0.00000000E+00  0.00000000E+00  0.00000000E+00
  0.00000000E+00  0.00000000E+00  0.00000000E+00
  0.00000000E+00  0.00000000E+00  0.00000000E+00
  0.00000000E+00  0.00000000E+00  0.00000000E+00
  0.00000000E+00  0.00000000E+00  0.00000000E+00
  0.00000000E+00  0.00000000E+00  0.00000000E+00
  0.00000000E+00  0.00000000E+00  0.00000000E+00
  0.00000000E+00  0.00000000E+00  0.00000000E+00
  0.00000000E+00  0.00000000E+00  0.00000000E+00
  0.00000000E+00  0.00000000E+00  0.00000000E+00
  0.00000000E+00  0.00000000E+00  0.00000000E+00
  0.00000000E+00  0.00000000E+00  0.00000000E+00
  0.00000000E+00  0.00000000E+00  0.00000000E+00
  0.00000000E+00  0.00000000E+00  0.00000000E+00
  0.00000000E+00  0.00000000E+00  0.00000000E+00
  0.00000000E+00  0.00000000E+00  0.00000000E+00
  0.00000000E+00  0.00000000E+00  0.00000000E+00
  0.00000000E+00  0.00000000E+00  0.00000000E+00
  0.00000000E+00  0.00000000E+00  0.00000000E+00
  0.00000000E+00  0.00000000E+00  0.00000000E+00
  0.00000000E+00  0.00000000E+00  0.00000000E+00
  0.00000000E+00  0.00000000E+00  0.00000000E+00
  0.00000000E+00  0.00000000E+00  0.00000000E+00
  0.00000000E+00  0.00000000E+00  0.00000000E+00
  0.00000000E+00  0.00000000E+00  0.00000000E+00
  0.00000000E+00  0.00000000E+00  0.00000000E+00
  0.00000000E+00  0.00000000E+00  0.00000000E+00
  0.00000000E+00  0.00000000E+00  0.00000000E+00
  0.00000000E+00  0.00000000E+00  0.00000000E+00
  0.00000000E+00  0.00000000E+00  0.00000000E+00
  0.00000000E+00  0.00000000E+00  0.00000000E+00
  0.00000000E+00  0.00000000E+00  0.00000000E+00
  0.00000000E+00  0.00000000E+00  0.00000000E+00
  0.00000000E+00  0.00000000E+00  0.00000000E+00
  0.00000000E+00  0.00000000E+00  0.00000000E+00
  0.00000000E+00  0.00000000E+00  0.00000000E+00
  0.00000000E+00  0.00000000E+00  0.00000000E+00
  0.00000000E+00  0.00000000E+00  0.00000000E+00
  0.00000000E+00  0.00000000E+00  0.00000000E+00
  0.00000000E+00  0.00000000E+00  0.00000000E+00
  0.00000000E+00  0.00000000E+00  0.00000000E+00
  0.00000000E+00  0.00000000E+00  0.00000000E+00
  0.00000000E+00  0.00000000E+00  0.00000000E+00
  0.00000000E+00  0.00000000E+00  0.00000000E+00
  0.00000000E+00  0.00000000E+00  0.00000000E+00
  0.00000000E+00  0.00000000E+00  0.00000000E+00
  0.00000000E+00  0.00000000E+00  0.00000000E+00
  0.00000000E+00  0.00000000E+00  0.00000000E+00
