Ce  O  H 
 1.0000000000000000
    11.6375999450999998    0.0000000000000000    0.0000000000000000
    -5.8188004494000003   10.0784580173999991    0.0000000000000000
     0.0000000000000000    0.0000000000000000   33.0856990814000014
 Ce  O   H  
  36  73   2
Selective dynamics
Cartesian
  1.9479569255759988  1.1424095598541544 10.1778807721763496   T   T   T
  0.0109793293059560  4.4645268512276086 10.1721833031815692   T   T   T
 -1.9276425911195114  7.7682638404431206 10.2114073925516990   T   T   T
  5.8149105227996829  1.1419212121539712 10.1853799272887429   T   T   T
  3.8824248592870210  4.4904542146362720 10.1621954131693855   T   T   T
  1.9439562248379914  7.8403064366547088 10.1774119678774788   T   T   T
  9.6994750877948626  1.1169335879914359 10.1779367773707499   T   T   T
  7.7522412136265535  4.4667763370137914 10.1760894753925761   T   T   T
  5.8245832961567299  7.8399462445889299 10.1745179816485098   T   T   T
  0.0025685363671665  2.2356316253487747  7.0520067660960715   T   T   T
 -1.9378281263620691  5.5967731815592057  7.0513902914331128   T   T   T
 -3.8646789831056765  8.9546959617220043  7.0694558145269211   T   T   T
  3.8826167759954022  2.2416180500125340  7.0493696636707073   T   T   T
  1.9422382050175073  5.6003093743784174  7.0525277888965627   T   T   T
 -0.0078265178035371  8.9562358633887147  7.0696928759154449   T   T   T
  7.7587984165269246  2.2362716363400792  7.0539151663753445   T   T   T
  5.8226000538876592  5.5998901263251391  7.0517750875273961   T   T   T
  3.8817454526680315  8.9645592153858953  7.0559415617521015   T   T   T
 -5.8160082697080986 10.0775106655298057  3.9149690322126247   T   T   T
 -1.9386281651730364  3.3579029500605477  3.9120166573246511   T   T   T
 -3.8781469446083725  6.7202768576191056  3.9138761791352468   T   T   T
 -1.9383841881152000 10.0755140711002475  3.9142229586957704   T   T   T
  1.9407824391115998  3.3588834487696131  3.9116915013578835   T   T   T
  0.0017609894382569  6.7201238332327575  3.9144837238936256   T   T   T
  1.9390948211411070 10.0776614956996013  3.9150550392775991   T   T   T
  5.8201283037145650  3.3586510205700053  3.9113991243657797   T   T   T
  3.8803546634078825  6.7209998762442913  3.9130789246207032   T   T   T
  1.9396194230887167  1.1198174904701967  0.7918394784920616   F   F   F
  0.0000193159599543  4.4793033618907687  0.7918394784920616   F   F   F
 -1.9395813963236872  7.8387899388033890  0.7918394784920616   F   F   F
  5.8188190517815581  1.1198174904701967  0.7918394784920616   F   F   F
  3.8792188166391441  4.4793033618907687  0.7918394784920616   F   F   F
  1.9396181159926607  7.8387899388033890  0.7918394784920616   F   F   F
  9.6980190296023423  1.1198174904701967  0.7918394784920616   F   F   F
  7.7584190388495076  4.4793033618907687  0.7918394784920616   F   F   F
  5.8188185709551243  7.8387899388033890  0.7918394784920616   F   F   F
 -5.8078088329792381 10.0687182792791390 10.9488562645256167   T   T   T
  9.7008200580233677  3.3427129412289904 10.9477477375979042   T   T   T
  7.7242985450925801  6.6799529596438578 10.9588519487425557   T   T   T
  3.8757758097083883  0.1838400834524740 11.0557374657641123   T   T   T
  1.9394599531172856  3.3635951128464008 10.9469511570596971   T   T   T
  0.0364173095011861  6.6718755793482085 10.9084441338387457   T   T   T
  1.9468224661651115 10.0745074675473756 10.9387351437108133   T   T   T
  5.8221990289758816  3.3653626327440569 10.9513650425581606   T   T   T
  3.8828418778368836  6.7273614666857764 10.9478500152139997   T   T   T
  0.0026051948739020  2.2364060319084711  9.3798142806146121   T   T   T
 -1.9472321495453790  5.5955452022497978  9.3975829363194681   T   T   T
 -3.8163238617713438  8.9512013010114657  9.4234851456295132   T   T   T
  3.8829931001317588  2.2663787034751217  9.3562285385515018   T   T   T
  1.9648990632962473  5.5914080660610646  9.3676740725842009   T   T   T
 -0.0548000945507403  8.9625759263501426  9.4274118157102276   T   T   T
  7.7582849962009215  2.2410914544848710  9.3827771685917405   T   T   T
  5.8102495816680060  5.5958820855957114  9.3714912849601308   T   T   T
  3.8854426754373499  8.9568356683041888  9.3793074460571670   T   T   T
  1.9405490613932928  1.1111643976626218  7.8565771283218329   T   T   T
 -0.0008957209724172  4.4795557118684695  7.8554952487553695   T   T   T
 -1.9328886940360246  7.8167002151690337  7.8388024127208080   T   T   T
  5.8233306167651993  1.1128007392450558  7.8582939910784066   T   T   T
  3.8853569333624467  4.4859920860307261  7.8324439928370104   T   T   T
  1.9231247791856363  7.8516411529048709  7.8712208432883548   T   T   T
  9.6987603844380317  1.1200393680488974  7.8554591661858968   T   T   T
  7.7612051835799738  4.4776626851835815  7.8523603885293598   T   T   T
  5.8405248990445653  7.8503288224367633  7.8666892545525746   T   T   T
 -5.8171432677361805 10.0770265236234451  6.2753025557609252   T   T   T
 -1.9371573025957096  3.3558801686270092  6.2710147801980352   T   T   T
  7.7569076750232027  6.7155579881484684  6.2712836830707372   T   T   T
 -1.9368649064955838 10.0772486703963278  6.2798417989457898   T   T   T
  1.9378920310267553  3.3572784094965140  6.2732062675680540   T   T   T
  0.0085740702926563  6.7148444790826396  6.2705882960429369   T   T   T
  1.9416338489582741 10.0761463090551171  6.2749672115976027   T   T   T
  5.8242457911133627  3.3561158855986459  6.2705512898293030   T   T   T
  3.8805035483414496  6.7345220287394101  6.2809591684084580   T   T   T
  0.0018275110442783  2.2378309977472424  4.6922011639104779   T   T   T
 -1.9382260965447395  5.5992632659866119  4.6941801230919884   T   T   T
 -3.8747225610535834  8.9579719961377720  4.7003518465465772   T   T   T
  3.8800905529098006  2.2382904767743015  4.6915869265470720   T   T   T
  1.9466973596191095  5.5989091066393133  4.6931722241234910   T   T   T
 -0.0016613232907449  8.9580731213681428  4.7000468399309954   T   T   T
  7.7596985524666406  2.2377050999803263  4.6921204647310777   T   T   T
  5.8154019378182609  5.5997956295292051  4.6938308804540192   T   T   T
  3.8807720442968554  8.9606804950013323  4.6927567635425715   T   T   T
  1.9408068658438431  1.1182179448551977  3.1134855366479250   T   T   T
  0.0015997279654303  4.4795984848917358  3.1143348663063359   T   T   T
 -1.9388485746229605  7.8386306077202619  3.1134240073219015   T   T   T
  5.8190188507567981  1.1183686131536392  3.1135252061729464   T   T   T
  3.8802851294744745  4.4789294537128859  3.1121439379340550   T   T   T
  1.9394701738521978  7.8391815300877932  3.1144346820783677   T   T   T
  9.6989427324305222  1.1197812046519624  3.1130960366935883   T   T   T
  7.7584144233523773  4.4797700077338973  3.1141917051397794   T   T   T
  5.8207893724432873  7.8392482583633214  3.1142602875526473   T   T   T
  0.0000000000000000  0.0000000000000000  1.5836789569841210   F   F   F
  9.6979997157763957  3.3594861032250902  1.5836789569841210   F   F   F
  7.7583994864527908  6.7189722064501805  1.5836789569841210   F   F   F
  3.8791999778207860  0.0000000000000000  1.5836789569841210   F   F   F
  1.9395997484971821  3.3594861032250902  1.5836789569841210   F   F   F
 -0.0000004808260716  6.7189722064501805  1.5836789569841210   F   F   F
  7.7583999672792139  0.0000000000000000  1.5836789569841210   F   F   F
  5.8187999707076283  3.3594861032250902  1.5836789569841210   F   F   F
  3.8791995086320061  6.7189722064501805  1.5836789569841210   F   F   F
 -0.0000195523967050  2.2396686026763990  0.0000000000000000   F   F   F
 -1.9396196595254662  5.5991544740969701  0.0000000000000000   F   F   F
 -3.8792200110435351  8.9586410510095913  0.0000000000000000   F   F   F
  3.8791809142033200  2.2396686026763990  0.0000000000000000   F   F   F
  1.9395806790609054  5.5991544740969701  0.0000000000000000   F   F   F
 -0.0000195444435483  8.9586410510095913  0.0000000000000000   F   F   F
  7.7583813691656998  2.2396686026763990  0.0000000000000000   F   F   F
  5.8187809012712703  5.5991544740969701  0.0000000000000000   F   F   F
  3.8791809105184822  8.9586410510095913  0.0000000000000000   F   F   F
 -2.0083458320671395  8.3304095631323278 12.7429662670083985   T   T   T
 -2.0570534788162034  9.2803664446995686 12.3918153695223143   T   T   T
 -2.8754039354907688  8.1026972907399486 13.1243440486504337   T   T   T
