 N  C  H 
 1.0000000000000000
    11.6375999450999998    0.0000000000000000    0.0000000000000000
    -5.8188004494000003   10.0784580173999991    0.0000000000000000
     0.0000000000000000    0.0000000000000000   28.0856990814000014
 N   C   H  
   2   4   4
Cartesian
  2.2332197478499998  3.8680490086999990  3.0000000000000000
  3.6125197478500004  6.2570490086999992  3.0000000000000000
  4.3177197478499991  5.0399490086999990  3.0000000000000000
  2.2058197478499997  6.2592490086999995  3.0000000000000000
  3.5914197478499998  3.8340490086999992  3.0000000000000000
  1.5247197478499999  5.0272490086999992  3.0000000000000000
  5.3397197478499994  5.0328490086999995  3.0000000000000000
  1.6887197478499996  7.1407490086999985  3.0000000000000000
  4.0765197478499982  2.9351490086999990  3.0000000000000000
  0.5036197478500002  4.9979490086999991  3.0000000000000000
